50993.0
1800
1 3 4 5 8 12 13 14 15 16 18 20 21 22 23 24 27 28 29 30 33 35 36 37 38 41 42 43 44 45 46 49 50 51 52 53 55 56 57 58 59 60 62 63 65 66 68 69 71 72 77 78 79 80 81 82 83 84 86 88 90 92 94 95 96 97 98 99 